% seed = 0

mint = 20;
% maxt = 68;

nActs = 32;
dur = [0,2,5,2,2,1,2,2,3,3,2,1,4,1,1,3,3,2,2,2,4,3,1,3,5,1,1,1,2,2,2,0];

nSkills = 7;
sreq = [| 0,0,0,0,0,0,0,
	| 0,2,0,0,2,1,1,
	| 1,1,0,0,0,0,0,
	| 1,0,0,1,2,0,2,
	| 1,1,1,0,0,1,1,
	| 1,1,1,1,1,0,1,
	| 0,1,1,1,0,0,0,
	| 1,0,0,0,0,0,0,
	| 0,0,0,0,0,0,1,
	| 1,0,0,0,0,1,0,
	| 1,0,0,2,0,0,0,
	| 0,2,1,0,0,0,0,
	| 0,0,0,1,1,0,2,
	| 0,0,1,0,1,0,2,
	| 0,0,1,1,2,0,3,
	| 2,0,1,1,3,0,0,
	| 2,0,0,0,1,1,1,
	| 1,0,1,1,0,0,1,
	| 1,1,1,0,0,1,3,
	| 0,0,0,0,0,0,1,
	| 2,0,0,4,0,0,1,
	| 2,0,1,0,1,0,1,
	| 0,0,1,0,0,0,0,
	| 1,0,0,0,0,0,0,
	| 0,0,0,0,1,0,2,
	| 2,0,1,1,2,1,0,
	| 1,0,0,1,2,1,2,
	| 1,0,0,1,2,0,0,
	| 1,1,1,0,2,1,1,
	| 0,1,1,0,1,0,0,
	| 1,0,0,1,0,1,1,
	| 0,0,0,0,0,0,0, |];

% SumOfsreq = 126;

nResources = 10;
mastery = [| true,true,false,true,false,false,false,
	| false,false,true,false,true,true,false,
	| true,false,true,false,true,false,false,
	| false,false,false,true,true,false,true,
	| true,false,true,true,false,false,false,
	| true,true,false,false,false,false,true,
	| true,false,false,true,false,false,true,
	| true,false,true,true,false,true,true,
	| false,true,false,true,true,true,true,
	| true,false,true,true,true,false,true, |];

nPrecs = 48;
pred = [1,1,1,2,2,2,3,3,3,4,4,4,5,6,6,7,7,8,8,8,9,10,11,12,13,14,15,15,16,16,16,17,18,19,20,21,22,23,24,25,25,25,26,27,28,29,30,31];
succ = [2,3,4,10,11,28,9,15,16,5,6,7,8,18,27,18,14,19,12,13,10,22,25,30,20,31,21,24,17,27,30,18,21,29,23,26,23,26,25,26,27,30,29,31,31,32,32,32];

nUnrels = 293;
unpred = [2,2,2,2,2,2,2,2,2,2,2,2,2,2,2,2,2,2,3,3,3,3,3,3,3,3,3,3,3,3,4,4,4,4,4,4,4,4,4,4,5,5,5,5,5,5,5,5,5,5,5,5,5,5,5,5,5,6,6,6,6,6,6,6,6,6,6,6,6,6,6,6,6,6,6,6,7,7,7,7,7,7,7,7,7,7,7,7,7,7,7,7,7,7,8,8,8,8,8,8,8,8,8,8,8,8,8,8,8,9,9,9,9,9,9,9,9,9,9,9,9,9,9,9,9,9,10,10,10,10,10,10,10,10,10,10,10,10,10,10,10,10,10,11,11,11,11,11,11,11,11,11,11,11,11,11,11,12,12,12,12,12,12,12,12,12,12,12,12,12,12,12,12,12,12,13,13,13,13,13,13,13,13,13,13,13,13,13,13,14,14,14,14,14,14,14,14,14,14,14,14,14,14,14,14,15,15,15,15,15,15,15,15,16,16,16,16,16,16,16,17,17,17,17,17,17,17,17,17,17,18,18,18,18,18,18,18,18,18,18,19,19,19,19,19,19,19,19,19,19,19,20,20,20,20,20,20,20,20,21,21,21,21,21,21,21,21,22,22,22,22,22,22,23,23,23,23,23,23,24,25,26,26,26,26,27,27,27,28,28,29,29,30];
unsucc = [3,4,5,6,7,8,9,12,13,14,15,16,17,18,19,20,21,24,4,5,6,7,8,11,12,13,14,19,20,28,9,10,11,15,16,17,22,24,25,28,6,7,9,10,11,14,15,16,17,18,21,22,24,25,27,28,31,7,8,9,10,11,12,13,14,15,16,17,19,20,22,23,24,25,28,30,8,9,10,11,12,13,15,16,17,19,20,22,23,24,25,27,28,30,9,10,11,14,15,16,17,18,21,22,24,25,27,28,31,11,12,13,14,15,16,17,18,19,20,21,24,25,27,28,30,31,11,12,13,14,15,16,17,18,19,20,21,24,25,27,28,30,31,12,13,14,15,16,17,18,19,20,21,22,23,24,28,13,14,15,16,17,18,19,20,21,22,23,24,25,26,27,28,29,31,14,15,16,17,18,19,21,22,24,25,27,28,30,31,15,16,17,18,19,20,21,22,23,24,25,26,27,28,29,30,16,17,18,19,20,22,23,28,19,20,22,23,24,25,28,19,20,22,23,24,25,27,28,30,31,19,20,22,23,24,25,27,28,30,31,20,21,22,23,24,25,26,27,28,30,31,21,22,24,25,27,28,30,31,22,23,24,25,27,28,30,31,24,25,27,28,30,31,24,25,27,28,30,31,28,28,27,28,30,31,28,29,30,29,30,30,31,31];

USEFUL_RES = [{},
	{1,2,3,4,6,7,8,9,10},
	{1,3,5,6,7,8,9,10},
	{1,2,3,4,5,6,7,8,9,10},
	{1,2,3,4,5,6,7,8,9,10},
	{1,2,3,4,5,6,7,8,9,10},
	{1,2,3,4,5,6,7,8,9,10},
	{1,3,5,6,7,8,10},
	{4,6,7,8,9,10},
	{1,2,3,5,6,7,8,9,10},
	{1,3,4,5,6,7,8,9,10},
	{1,2,3,5,6,8,9,10},
	{1,2,3,4,5,6,7,8,9,10},
	{2,3,4,5,6,7,8,9,10},
	{1,2,3,4,5,6,7,8,9,10},
	{1,2,3,4,5,6,7,8,9,10},
	{1,2,3,4,5,6,7,8,9,10},
	{1,2,3,4,5,6,7,8,9,10},
	{1,2,3,4,5,6,7,8,9,10},
	{4,6,7,8,9,10},
	{1,3,4,5,6,7,8,9,10},
	{1,2,3,4,5,6,7,8,9,10},
	{2,3,5,8,10},
	{1,3,5,6,7,8,10},
	{2,3,4,6,7,8,9,10},
	{1,2,3,4,5,6,7,8,9,10},
	{1,2,3,4,5,6,7,8,9,10},
	{1,2,3,4,5,6,7,8,9,10},
	{1,2,3,4,5,6,7,8,9,10},
	{1,2,3,4,5,6,8,9,10},
	{1,2,3,4,5,6,7,8,9,10},
	{}];

POTENTIAL_ACT = [{2,3,4,5,6,7,8,10,11,12,13,15,16,17,18,19,21,22,24,26,27,28,29,30,31},
	{2,4,5,6,7,10,12,13,14,15,16,17,18,19,22,23,25,26,27,28,29,30,31},
	{2,3,4,5,6,7,8,10,11,12,13,14,15,16,17,18,19,21,22,23,24,25,26,27,28,29,30,31},
	{2,4,5,6,7,9,11,13,14,15,16,17,18,19,20,21,22,25,26,27,28,29,30,31},
	{3,4,5,6,7,8,10,11,12,13,14,15,16,17,18,19,21,22,23,24,26,27,28,29,30,31},
	{2,3,4,5,6,7,8,9,10,11,12,13,14,15,16,17,18,19,20,21,22,24,25,26,27,28,29,30,31},
	{2,3,4,5,6,7,8,9,10,11,13,14,15,16,17,18,19,20,21,22,24,25,26,27,28,29,31},
	{2,3,4,5,6,7,8,9,10,11,12,13,14,15,16,17,18,19,20,21,22,23,24,25,26,27,28,29,30,31},
	{2,3,4,5,6,7,9,10,11,12,13,14,15,16,17,18,19,20,21,22,25,26,27,28,29,30,31},
	{2,3,4,5,6,7,8,9,10,11,12,13,14,15,16,17,18,19,20,21,22,23,24,25,26,27,28,29,30,31}];
